outputs/case_197.model.txt
severely_insufficient_measures_executed = True
improvement_plan_executed = False
significantly_insufficient_measures_executed = False
capital_adequacy_ratio = 40
improvement_plan_submitted = False
net_worth_ratio = 3/2
net_worth = -10
capital_insufficient_measures = False
capital_severely_insufficient_measures = True
capital_level = 4
penalty = False
capital_significantly_insufficient_measures = False
capital_level_corrected = 4